&CONTROL
restart_mode = 'from_scratch',
calculation = "scf",
etot_conv_thr = 1.0E-4,
forc_conv_thr = 1.0D-3,
nstep = 40,
tprnfor=.true.,
tstress=.true.,
disk_io='low',
prefix="isolatedAtom",
outdir = "/home/ben/espresso/scratch",
pseudo_dir = "/home/ben/espresso/pp",
/

&SYSTEM
ibrav = 0,
celldm(1) = 6.75082562,
nat = 1,
ntyp = 1,
ecutwfc = 50,
ecutrho = 200,
occupations = 'smearing',
smearing = 'mv',
degauss = 0.02,
nosym = .TRUE.,
starting_magnetization(1) = 0.7,
nspin = 2,
/

&ELECTRONS
mixing_beta = 3.0000000E-01,
mixing_ndim = 10,
diagonalization='david',
mixing_mode = 'TF',
conv_thr = 1.0D-6,
/

&IONS
ion_dynamics='bfgs',
/

&CELL
cell_dynamics='bfgs',
press = 0.0,
cell_factor = 2.0,
/

ATOMIC_SPECIES
C   12.0   C.pbe-n-kjpaw_psl.1.0.0.UPF

ATOMIC_POSITIONS crystal
C     0.5     0.5     0.5

K_POINTS automatic
10 10 10    1 1 1

CELL_PARAMETERS alat
1.0    0.0    0.0
0.0    1.0    0.0
0.0    0.0    1.0

